21
20
5 11 0 15 19 7 18 13 3 20 16 4 12 14
7 11 9 17 6 18 14 10 19 20 5 16 4 1
18 15 0 10 17 8
14 18 10 13 2 0 9 6
8
17 12 19 16 1 0
11 17 12 20
16 8 7 10 3
19 1 3 5 6 18 8 13 14 17 0
16 3 5 17 10 1 11 20
3 17 5 9 18 12 10
5 9 12 1 3 8 16 13 14 4 20 6 19 18 7
3 4 1 8 0 11 13 18
7 5 2 6 14 4 13 8 12 17 11 16 19 0 10
15 10 4 12 0 19 6 7 5 11 20 3 14 13 2 17
14 3 17 0 2 1 8 4 20 10 13 11 7 15 6 16 12 9
16 17 12 8 20 14 0 3 5 6 11 1 10 18 15 2 19 4
15 12 8 19 10 0 9 14 18 20 17 11 6 2 3 5
0 1 16 18 6 3 17 2 14 9 10 5 13 11 8 7 20 15 19
18 5 13 20 4 17 0 6
